p cnf 12 50 
6 -3 12 0
3 7 10 0
10 -9 -5 0
-9 4 -3 0
-12 -5 -2 0
-12 5 1 0
9 12 -8 0
-5 12 8 0
11 -3 -10 0
-8 9 6 0
-10 -5 -9 0
10 5 9 0
-3 10 -2 0
-7 -10 -2 0
8 -6 -9 0
11 6 -12 0
-8 -12 11 0
-12 -9 -7 0
-3 10 12 0
10 -1 2 0
-7 8 6 0
-4 6 5 0
6 -2 5 0
-8 7 4 0
3 4 -12 0
10 2 4 0
2 -3 -1 0
9 -1 -10 0
11 -9 7 0
12 -4 6 0
-6 9 -1 0
-5 -10 1 0
3 -9 -4 0
-9 10 2 0
-2 3 10 0
-8 6 3 0
4 3 -2 0
4 9 -10 0
6 1 3 0
-9 -10 -7 0
3 -11 -10 0
4 -1 -12 0
-5 -8 6 0
3 -4 -12 0
-2 -6 -10 0
12 -8 -7 0
9 6 3 0
12 4 -2 0
7 -12 -1 0
-12 5 2 0
